
  32    4
  10   10   10   10

   0   0   0   0   0   3 2 6 7 
   1   0   1   1   1   2 10 3 
   8   1   0   1   4   2 27 4 
   4   3   4   0   4   1 5 
   5   3   8   0   3   2 20 8 
   9   6   6   6   0   2 20 8 
   1   6   0   1   6   3 31 20 9 
   1   5   3   4   0   2 31 9 
   4   4   3   5   0   1 11 
  10   3   0   2   6   3 24 20 13 
   8   0   1   4   7   2 24 12 
   5   6   0   5   5   1 13 
   5   0   5   5   4   1 14 
   7   0   2   7   4   1 15 
   3   4   8   3   0   1 16 
   9   1   0   2   4   1 17 
   3   3   0   2   4   1 18 
   5   2   3   7   0   2 30 19 
   8   5   3   0   3   2 29 21 
   3   3   4   0   6   1 21 
   6   1   3   0   4   1 22 
   5   7   0   3   2   1 23 
   3   4   2   3   0   1 25 
   4   5   0   6   3   1 25 
   4   3   0   5   2   1 26 
   8   0   3   4   5   1 28 
   8   6   0   5   5   1 28 
   9   4   5   3   0   1 32
   9   4   6   5   0   1 32
   2   5   5   7   0   1 32
   9   6   5   0   2   1 32
   0   0   0   0   0   0 
